17 17 4

9999 3 5 48 48 8 8 5 5 3 3 0 3 5 8 8 5 
3 9999 3 48 48 8 8 5 5 0 0 3 0 3 8 8 5 
5 3 9999 72 72 48 48 24 24 3 3 5 3 0 48 48 24 
48 48 74 9999 0 6 6 12 12 48 48 48 48 74 6 6 12 
48 48 74 0 9999 6 6 12 12 48 48 48 48 74 6 6 12 
8 8 50 6 6 9999 0 8 8 8 8 8 8 50 0 0 8 
8 8 50 6 6 0 9999 8 8 8 8 8 8 50 0 0 8 
5 5 26 12 12 8 8 9999 0 5 5 5 5 26 8 8 0 
5 5 26 12 12 8 8 0 9999 5 5 5 5 26 8 8 0 
3 0 3 48 48 8 8 5 5 9999 0 3 0 3 8 8 5 
3 0 3 48 48 8 8 5 5 0 9999 3 0 3 8 8 5 
0 3 5 48 48 8 8 5 5 3 3 9999 3 5 8 8 5 
3 0 3 48 48 8 8 5 5 0 0 3 9999 3 8 8 5 
5 3 0 72 72 48 48 24 24 3 3 5 3 9999 48 48 24 
8 8 50 6 6 0 0 8 8 8 8 8 8 50 9999 0 8 
8 8 50 6 6 0 0 8 8 8 8 8 8 50 0 9999 8 
5 5 26 12 12 8 8 0 0 5 5 5 5 26 8 8 9999 

6.25 0 8
6.25 1 12
6.25 2 5
6.25 3 5
6.25 4 11
6.25 5 9
6.25 6 13
6.25 7 12
6.25 8 10
6.25 9 6
6.25 10 8
6.25 11 8
6.25 12 13
6.25 13 4
6.25 14 3
6.25 15 1
6.25 16 10

4651
0 436
1 687
2 135
3 968
4 663
5 591
6 260
7 851
8 906
9 658
10 661
11 608
12 597
13 183
14 728
15 53
16 318

